739
1   1   92   132  0 26 38 65 31 10 67 0
1   2   0    0    0 0
1   3   65   138  0 46 19 54 13 27 45 4 0
2   1   40   87   0 47 36 69 21 48 0
2   2   68   119  0 29 15 57 20 70 60 71 37 5 0
2   3   72   137  0 74 2 33 63 51 6 68 30 0
3   1   4    22   0 53 0
3   2   107  123  0 72 9 50 18 55 25 39 58 0
3   3   49   129  0 11 66 59 14 0
4   1   62   140  0 16 49 24 3 44 32 40 0
4   2   74   135  0 17 75 34 52 8 35 7 12 0
4   3   0    0    0 0
5   1   57   104  0 43 23 56 41 42 64 0
5   2   0    0    0 0
5   3   49   98   0 22 61 28 62 73 1 0